
  32   50
  16   11    5   16   11   21   23    5   15    5   17   12    2   21   10   23    7   15    3    1    9    4    2   14   17    8    3   11   10   14   14    8    0    0    0    0    0    0    0    0    0    0    0    0    0    0    0    0    0    0

   0   0   0   0   0   0   0   0   0   0   0   0   0   0   0   0   0   0   0   0   0   0   0   0   0   0   0   0   0   0   0   0   0   0   0   0   0   0   0   0   0   0   0   0   0   0   0   0   0   0   0  10 2 3 4 5 6 8 9 10 13 14 
  10   0   0   0   0   0   0   0   0   0   0   7   0   0   0   0   0   0   0   0   0   0   0   0   0  10   0   0   0   0   0   0   0   0   0   0   0   0   0   0   0   0   0   0   0   0   0   0   0   0   0   8 24 23 21 20 18 16 15 11 
  10   0   0   0   0   0   0   0   0   0   0   0   9   0   0   0   0   0   0   0   0   0   0   0   2   0   0   0   0   0  10   0   0   0   0   0   0   0   0   0   0   0   0   0   0   0   0   0   0   0   0   5 30 17 15 12 7 
   8   0   0   0  10   6   2   0   0   0   0   0   0   1   0   3   7   0   0   0   0   0   0   0   8   0   8   0   0   0   0   7   0   0   0   0   0   0   0   0   0   0   0   0   0   0   0   0   0   0   0   6 31 29 24 21 16 15 
   3   0   3   0   0   0   1   0   0   0   0   0   0   2   0   0   0   0   0   1   0   0   0   0   0   0   0   0   0   0   0   0   0   0   0   0   0   0   0   0   0   0   0   0   0   0   0   0   0   0   0   5 31 27 23 22 17 
   8   0   0   0   0   0   1   0   0   0   0   7   0   0   0   9   0   6   0   0   0   0   0   0   0   7   0   0   0   7   0  10   0   0   0   0   0   0   0   0   0   0   0   0   0   0   0   0   0   0   0   5 28 25 23 22 19 
   6   0   0   4   0   0   0   0   0   0   0   0   0   0   0   3   0   0   0   0   0   0   0   0   0   0   0   0   0   0   0   0   0   0   0   0   0   0   0   0   0   0   0   0   0   0   0   0   0   0   0   7 31 29 28 27 26 21 20 
   5   0   0   2  10   0   0   0   0   0   0   0   0   0   0   0   6   0   3   0   0   0   0   0   0   0   0   0   0   0   0   0   0   0   0   0   0   0   0   0   0   0   0   0   0   0   0   0   0   0   0   5 31 29 28 21 19 
   8   0   0   0   0   0   0   0   0   0   0   8   3   0   7   0   0   0   0   0   0   0   0   0   0   0   0   0   0   0   7   0   8   0   0   0   0   0   0   0   0   0   0   0   0   0   0   0   0   0   0   4 31 29 19 15 
   7   0   0   0   0   0   0   0   0   0   0   0   0   0   0   0   0   0  10   0   0   0   0   0   0   0   0   0   0   0   0   0   0   0   0   0   0   0   0   0   0   0   0   0   0   0   0   0   0   0   0   5 31 29 28 25 19 
   6   0   0   0   0   0   3   5   0   0   0   0   0   0   0   0   0   0   0   0   0   0   0   0   0   0   0   0   0   0   0   0   0   0   0   0   0   0   0   0   0   0   0   0   0   0   0   0   0   0   0   5 28 27 26 25 22 
   2   0   0   0   0   0   0   0   3   0   0   0   0   0   0   0   8   0   0   0   0   5   0   0   0   0   0   0   0   0   0   0   0   0   0   0   0   0   0   0   0   0   0   0   0   0   0   0   0   0   0   5 29 28 27 26 20 
   5   4   0   4   0   0   0   0   0   0   0   0   0   0   0   0  10   0   0   0   0   0   0   0   0   0   0   3   0   0   0   0   0   0   0   0   0   0   0   0   0   0   0   0   0   0   0   0   0   0   0   5 30 28 27 26 25 
   2   2   3   1   0   8   0   0   0   0   0   0   0   0   0   0   7   0   5   0   0   0   0   0   5   0   0   0   0   0   0   0   0   0   0   0   0   0   0   0   0   0   0   0   0   0   0   0   0   0   0   4 29 27 26 20 
   7   0   0   0   0   0   0   4   0   0   0   0   0   0   0   0   0   0   0   0   0   0   0   0   0   0   0   0   0   0   0   0   0   0   0   0   0   0   0   0   0   0   0   0   0   0   0   0   0   0   0   3 28 26 25 
  10   0   0   0   4   0   0   1   0   0   0   0   0   0   9   0   0   7   0   0   0   0   0   0   0   0   0   0   3   5   0   3   0   0   0   0   0   0   0   0   0   0   0   0   0   0   0   0   0   0   0   3 30 27 25 
   7   0   0   0   0   0   8   0   0   0   0   0   0   0  10   0   0   0   0   0   1   0   3   0   2   7   0   0   0   0   0   1   0   0   0   0   0   0   0   0   0   0   0   0   0   0   0   0   0   0   0   3 28 26 25 
   6   0   0   3   7   0  10   0   0   9   0   0   1   0   0   0   0   0   0   0   0   0   0   0   0   4   0   0   0   2   3   0   0   0   0   0   0   0   0   0   0   0   0   0   0   0   0   0   0   0   0   3 27 26 25 
   4   0   0   0   0   0   0   0   0  10   5   0   6   0   0   0   0   0   0   0   0   0   0   0   0   7   4   0   0   0   4   0   0   0   0   0   0   0   0   0   0   0   0   0   0   0   0   0   0   0   0   2 27 26 
   4   7   7   0   0   0   0   0   0   0   0   0   0   0   0   0   0   0   0   0   0   0   0   0   7   0   0   0  10   0   0   0   0   0   0   0   0   0   0   0   0   0   0   0   0   0   0   0   0   0   0   1 25 
   5   0   7   0   0   0   0   9   0   0   0   0   0   0   8   0   0   0   0   0   0   9   0   0   0   0   0   0   0   0   2   0   0   0   0   0   0   0   0   0   0   0   0   0   0   0   0   0   0   0   0   1 25 
   9   4   0   0   0   0   0   0   0   0   0   0   4   0   0   0   0   0   0   3   0   0   3   0   0   0   1   0   0   0   0   0   0   0   0   0   0   0   0   0   0   0   0   0   0   0   0   0   0   0   0   1 29 
   4   0   0   0   0   0   0  10   0   0   0   0   0   0   0   0   0   0   0   0   0   0   0   0   0   4   0   0   0   0   0   0   0   0   0   0   0   0   0   0   0   0   0   0   0   0   0   0   0   0   0   1 30 
   5   0   0   0   0   0   7  10   0   0   0   0   0   0   0   2   0   0   4   0   0   0   0   2   0   0   0   0   0   0   0   0   0   0   0   0   0   0   0   0   0   0   0   0   0   0   0   0   0   0   0   1 25 
   9   0   0   0   0   0   0   0   0   0   0   4   0   0   0   0   0   0   0   0   0   0   0   0   0   0   0   0   0   0   1   0   0   0   0   0   0   0   0   0   0   0   0   0   0   0   0   0   0   0   0   1 32
   7   9   0   0   0   0   0   0   0   0   0   0   4   0   0   0   0   0   0   0   0   0   0   0   0   0   0   0   0   7   0   0   0   0   0   0   0   0   0   0   0   0   0   0   0   0   0   0   0   0   0   1 32
   7   0   0   0   0   0   0   0   0   0   0   0   0   0   0   0   0   1   0   0   0   0   0   0   6   0   0   0   0   0   0   0   5   0   0   0   0   0   0   0   0   0   0   0   0   0   0   0   0   0   0   1 32
   9   0   0   0   0   0  10   0   0   0   0   0   0   0   0   0   0   0   0   0   0   0   0   0  10   0   0   0   0   0   0   0   0   0   0   0   0   0   0   0   0   0   0   0   0   0   0   0   0   0   0   1 32
   8   0   0   0   0   0   0   0   5   0   0   6   0   0   0   0   0   0   0   0   0   0   0   0   0   0   0   0   0   0   0   0   0   0   0   0   0   0   0   0   0   0   0   0   0   0   0   0   0   0   0   1 32
   2   0   0   0   0   0   0   0   0   0   0   0   0   0   0   0   0   0   0   0   0   0   0   0   0   0   0   0   0   1   0   3   0   0   0   0   0   0   0   0   0   0   0   0   0   0   0   0   0   0   0   1 32
   8   0   0   4   0   0   0   0   0   0   0   0   0   0   0   0   0   0   0   0   0   0   0   0   0   0   0   0   0   0   0   0   2   0   0   0   0   0   0   0   0   0   0   0   0   0   0   0   0   0   0   1 32
   0   0   0   0   0   0   0   0   0   0   0   0   0   0   0   0   0   0   0   0   0   0   0   0   0   0   0   0   0   0   0   0   0   0   0   0   0   0   0   0   0   0   0   0   0   0   0   0   0   0   0   0 
